n_res = 5;
n_events = 102;
n_prec = 298;
source = 1;
sink = 102;
min_lvl = [-15, -17, -1, -4, -12];
max_lvl = [0, 4, 14, 5, 1];
rr = [| 0, -1, 1, 0, 2, -1, 0, -1, 1, 2, 0, 2, 0, 0, -1, -2, -1, -1, -2, 0, 0, 0, 2, 1, 1, 1, 2, 0, 0, 2, -2, 1, 0, -2, 0, 0, 0, 0, 0, -1, 0, 0, -2, 0, 1, -1, 0, -1, 0, 0, 0, -1, -2, 0, -1, 0, -1, 0, 0, 0, 1, -1, 0, -2, 2, 0, 0, 0, 0, 0, 1, 0, 0, 2, 1, 0, 0, -1, -2, 0, 0, 1, -2, 2, -2, 0, 2, 0, 0, -2, 1, 0, 0, -2, 0, 2, -1, 2, 2, -2, -1, 0
      | 0, -1, 0, 2, -1, 0, 0, -1, -2, 0, -2, -2, 1, 0, 0, 0, 1, 2, 1, 0, 1, -1, 1, 0, -1, 0, 0, 0, -2, -1, 0, -2, 0, -2, 1, 0, 2, 2, -1, -1, 0, 0, 0, -2, 0, -2, 0, 1, -1, 0, 0, -1, 2, 1, -1, 2, 0, 1, -2, 1, -1, 0, 0, 0, -2, 1, 1, 0, 0, 0, 2, 0, 1, -2, 0, 0, -1, -2, 0, 0, -2, -1, 0, -2, 1, 0, 1, 0, 2, 1, 1, 2, -1, -1, -2, -2, -1, 0, 0, 1, 0, 0
      | 0, -1, 2, 0, 0, -2, 0, 0, -2, -1, 0, 1, 0, 2, 1, 0, 2, 2, 2, 1, -2, 2, 2, 0, 0, -2, 0, 1, 1, 0, 0, -2, 0, -2, -1, -2, 0, 2, 0, -1, 0, 0, 0, 0, 0, 0, 0, -2, -2, 0, 0, 1, -1, 1, 0, 2, 0, -1, -2, 0, -2, 2, 1, 1, 0, 0, 1, -1, -1, 0, 2, -2, 0, -2, -2, 0, 0, -1, 2, -1, -2, -1, 0, 2, 0, 0, -1, 0, 2, 2, 0, 2, 2, 0, 0, 0, 0, 2, 0, -1, 1, 0
      | 0, 0, 1, 0, -1, 0, 0, -1, 1, 0, 0, -2, -2, 0, 0, 0, -1, -1, 1, 0, 0, 0, -1, -1, 2, -2, 1, 0, 0, 0, 0, 0, 0, 0, 2, 0, 1, 1, -2, 0, 0, -2, 2, 1, -1, 2, 1, 2, 2, -2, 2, 0, 0, 2, -2, 1, -2, -1, -2, -1, -1, -1, 0, 2, 0, -1, 0, -1, -1, -2, -2, 0, 1, -1, 1, 0, 0, 0, -1, -1, 2, 0, 0, 2, 0, 2, -2, 0, 0, 0, 2, -1, -1, 2, 0, 0, -1, 1, 0, 0, 2, 0
      | 0, -1, 0, 0, 0, -2, 2, 0, 1, 2, 1, -2, 0, -1, 0, -1, -1, 0, 0, -2, 0, 2, -1, 0, 1, 1, 2, 1, -1, 2, -2, 1, -1, 0, 0, 0, -2, 0, 0, 1, 1, 0, 2, 2, -2, 2, -1, 2, -2, 2, 1, 2, -1, 0, -1, 0, 0, 0, -1, -1, -2, 0, 0, 0, -2, 2, -1, 0, 2, 1, 2, 0, 1, -2, -1, 0, -2, -1, -1, -2, -1, 0, 2, 1, 0, -2, 2, -1, -1, 1, 2, 0, -2, 1, 0, 1, 0, 1, 0, -2, 0, 0 |];
prec = [| 1, 0, 60
        | 1, 0, 7
        | 1, 0, 6
        | 1, 0, 2
        | 1, 0, 3
        | 1, 0, 4
        | 1, 0, 8
        | 1, 0, 64
        | 1, 0, 5
        | 2, 13, 24
        | 2, 11, 87
        | 2, 27, 33
        | 2, 27, 14
        | 3, -2, 55
        | 3, 1, 93
        | 3, 4, 27
        | 4, 24, 74
        | 4, 18, 52
        | 5, -1, 64
        | 5, 6, 54
        | 6, 1, 49
        | 6, 20, 12
        | 7, 2, 78
        | 7, 15, 92
        | 7, 7, 37
        | 7, 4, 94
        | 8, 3, 67
        | 8, -1, 60
        | 9, 7, 30
        | 9, 9, 63
        | 10, 16, 96
        | 10, -33, 59
        | 10, 3, 12
        | 11, 1, 83
        | 11, 1, 24
        | 11, 0, 66
        | 12, 0, 96
        | 12, -23, 10
        | 12, -39, 59
        | 12, -24, 86
        | 13, -197, 49
        | 13, 15, 99
        | 13, -269, 23
        | 14, 2, 39
        | 14, -47, 2
        | 15, 2, 26
        | 15, 2, 76
        | 15, 6, 53
        | 16, -6, 46
        | 16, 9, 99
        | 17, 3, 93
        | 17, 5, 55
        | 18, 27, 94
        | 18, -72, 78
        | 18, 19, 69
        | 18, -8, 72
        | 18, 26, 90
        | 19, 13, 13
        | 19, 0, 57
        | 19, 12, 40
        | 20, 0, 30
        | 20, 0, 77
        | 21, 3, 9
        | 21, 2, 63
        | 21, 2, 26
        | 22, 8, 63
        | 22, 0, 33
        | 22, 3, 26
        | 22, -3, 53
        | 22, -47, 42
        | 22, -3, 67
        | 23, 18, 67
        | 23, 2, 26
        | 23, 0, 87
        | 23, -224, 38
        | 23, -170, 53
        | 23, 13, 99
        | 24, 0, 48
        | 24, -2, 85
        | 24, 3, 21
        | 24, 25, 100
        | 24, -7, 99
        | 25, -2, 89
        | 26, -213, 23
        | 26, 2, 50
        | 26, -264, 63
        | 26, -320, 46
        | 27, 7, 55
        | 27, 16, 93
        | 27, 14, 17
        | 28, 6, 50
        | 28, 8, 23
        | 28, 19, 87
        | 29, -221, 89
        | 29, 4, 40
        | 29, 25, 30
        | 29, -2, 50
        | 30, -274, 21
        | 30, -224, 50
        | 30, -225, 53
        | 30, 0, 13
        | 30, -293, 6
        | 31, 12, 98
        | 31, -110, 77
        | 31, -146, 89
        | 32, 3, 42
        | 33, 18, 11
        | 33, 0, 66
        | 33, 17, 9
        | 34, 4, 52
        | 34, -3, 95
        | 34, 11, 101
        | 34, -18, 73
        | 35, 3, 29
        | 35, 1, 20
        | 35, 0, 47
        | 36, 2, 84
        | 36, -1, 80
        | 37, 2, 92
        | 37, 10, 90
        | 38, 9, 41
        | 38, -261, 49
        | 38, -2, 16
        | 39, -46, 2
        | 39, -1, 56
        | 40, 3, 31
        | 40, -139, 19
        | 40, -217, 60
        | 41, -225, 38
        | 41, 8, 48
        | 41, 4, 71
        | 42, 10, 28
        | 42, 17, 21
        | 42, 17, 22
        | 43, 7, 19
        | 43, 3, 51
        | 44, 2, 86
        | 44, 6, 59
        | 44, 0, 96
        | 44, 4, 10
        | 45, 0, 70
        | 45, -226, 8
        | 45, 5, 88
        | 45, 9, 35
        | 46, 11, 13
        | 46, 0, 81
        | 47, -186, 8
        | 47, 22, 99
        | 47, -3, 82
        | 48, 1, 67
        | 48, 14, 75
        | 48, -180, 85
        | 49, 7, 38
        | 50, -310, 26
        | 50, 2, 30
        | 50, 8, 13
        | 50, 9, 84
        | 50, -290, 15
        | 51, 14, 40
        | 51, -90, 35
        | 51, 3, 77
        | 51, -1, 20
        | 51, 21, 84
        | 52, 13, 101
        | 52, -20, 34
        | 52, 22, 95
        | 52, -21, 73
        | 53, 8, 83
        | 53, 7, 76
        | 54, 9, 97
        | 55, -1, 93
        | 56, 7, 65
        | 56, -2, 26
        | 57, 0, 62
        | 57, 0, 88
        | 58, 19, 43
        | 59, -29, 44
        | 59, 2, 79
        | 60, 13, 71
        | 60, 3, 58
        | 60, 21, 31
        | 60, 10, 26
        | 60, 0, 13
        | 61, -4, 13
        | 61, 12, 28
        | 61, -2, 75
        | 61, 9, 87
        | 61, 10, 83
        | 61, 11, 48
        | 62, 1, 50
        | 62, 2, 51
        | 62, 1, 36
        | 62, 0, 31
        | 63, 23, 84
        | 63, 22, 68
        | 64, 4, 54
        | 64, 11, 97
        | 65, 10, 33
        | 65, -45, 2
        | 65, -22, 56
        | 65, 10, 84
        | 65, 12, 32
        | 66, 0, 84
        | 66, -1, 68
        | 66, -39, 11
        | 66, 9, 24
        | 66, -51, 22
        | 66, -54, 32
        | 67, 1, 13
        | 67, 2, 26
        | 67, 0, 30
        | 67, 2, 99
        | 67, 3, 87
        | 68, 1, 15
        | 69, -118, 7
        | 69, 4, 94
        | 70, 13, 35
        | 70, 15, 13
        | 71, 15, 16
        | 71, -3, 50
        | 72, -69, 90
        | 72, 8, 69
        | 73, 13, 34
        | 74, -25, 4
        | 74, 0, 73
        | 74, 5, 101
        | 75, 24, 28
        | 75, -3, 23
        | 75, 19, 13
        | 76, 10, 50
        | 76, 13, 85
        | 76, -2, 67
        | 77, 16, 88
        | 77, -167, 47
        | 78, 22, 69
        | 78, 19, 90
        | 78, 24, 18
        | 79, 8, 86
        | 79, 1, 96
        | 80, 0, 25
        | 80, 3, 70
        | 81, 1, 44
        | 81, 13, 67
        | 81, 4, 85
        | 82, 0, 51
        | 82, -142, 35
        | 82, 24, 29
        | 83, 0, 87
        | 83, -1, 67
        | 83, 2, 13
        | 83, 0, 48
        | 83, 5, 50
        | 83, 0, 99
        | 84, 0, 13
        | 84, -1, 30
        | 84, 13, 99
        | 85, -284, 24
        | 85, 7, 99
        | 85, -2, 48
        | 85, -5, 61
        | 85, -280, 21
        | 85, -136, 53
        | 86, -31, 44
        | 86, -8, 12
        | 86, -7, 10
        | 86, 1, 96
        | 87, -247, 15
        | 87, -4, 84
        | 87, 20, 13
        | 87, -1, 50
        | 87, 12, 26
        | 88, 10, 29
        | 88, -164, 51
        | 88, -186, 77
        | 89, 4, 91
        | 90, 10, 72
        | 91, 1, 29
        | 91, 6, 84
        | 91, 0, 45
        | 92, -67, 37
        | 92, 12, 78
        | 93, 10, 102
        | 94, -118, 72
        | 94, 3, 102
        | 94, -88, 18
        | 94, -126, 7
        | 95, 2, 102
        | 96, 6, 102
        | 97, 5, 102
        | 98, -155, 80
        | 98, -159, 88
        | 98, -198, 31
        | 98, -100, 29
        | 98, 8, 102
        | 98, -237, 35
        | 99, 6, 102
        | 100, 7, 102
        | 101, 2, 102 |];
